c pcminimize - minimizing a CNF with respect to propagation completeness by iterative removing of absorbed clauses.
c Petr Kucera, 2016-2021
c Version 2.7, revision 59, git hash 4910a71, date 2024-07-16 20:17:42 +0200
p cnf 261 1497
-2 -62 0
3 -62 0
-4 -62 0
-13 -62 0
16 -62 0
19 -62 0
-20 -62 0
32 -62 0
-33 -62 0
-34 -62 0
-37 -62 0
38 -62 0
-39 -62 0
-40 -62 0
-41 -62 0
42 -62 0
-43 -62 0
-44 -62 0
-45 -62 0
-46 -62 0
49 -62 0
-50 -62 0
-51 -62 0
-52 -62 0
-53 -62 0
-54 -62 0
-55 -62 0
56 -62 0
-57 -62 0
-58 -62 0
-59 -62 0
60 -62 0
-61 -62 0
62 -63 0
-15 -63 0
63 -64 0
-14 -64 0
-18 -65 0
-24 -65 0
-25 -65 0
-26 -65 0
-27 -65 0
-28 -65 0
64 -66 0
65 -66 0
66 -67 0
30 -67 0
2 -68 0
-3 -68 0
-4 -68 0
13 -68 0
-14 -68 0
-15 -68 0
-16 -68 0
-18 -68 0
-19 -68 0
-20 -68 0
24 -68 0
-25 -68 0
-26 -68 0
-27 -68 0
-32 -68 0
33 -68 0
-34 -68 0
-37 -68 0
-38 -68 0
39 -68 0
-40 -68 0
-41 -68 0
-42 -68 0
-43 -68 0
-44 -68 0
45 -68 0
-46 -68 0
-49 -68 0
-50 -68 0
51 -68 0
-52 -68 0
53 -68 0
-54 -68 0
-55 -68 0
-56 -68 0
57 -68 0
-58 -68 0
-59 -68 0
-60 -68 0
-61 -68 0
68 -69 0
28 -69 0
-2 -70 0
-3 -70 0
4 -70 0
-13 -70 0
-15 -70 0
-16 -70 0
-18 -70 0
-19 -70 0
-20 -70 0
24 -70 0
25 -70 0
-26 -70 0
-27 -70 0
-32 -70 0
33 -70 0
-34 -70 0
37 -70 0
-38 -70 0
-39 -70 0
-40 -70 0
-41 -70 0
-42 -70 0
-43 -70 0
44 -70 0
-45 -70 0
-46 -70 0
-49 -70 0
50 -70 0
-51 -70 0
-52 -70 0
-53 -70 0
-54 -70 0
-55 -70 0
56 -70 0
-57 -70 0
58 -70 0
-59 -70 0
-60 -70 0
-61 -70 0
70 -71 0
14 -71 0
71 -72 0
-28 -72 0
69 72 -73 0
73 -74 0
-30 -74 0
67 74 -75 0
75 -76 0
-5 -77 0
-7 -77 0
-8 -77 0
-9 -77 0
-10 -77 0
-12 -77 0
-17 -77 0
-23 -77 0
-29 -77 0
-35 -77 0
76 -78 0
77 -78 0
78 -79 0
11 -79 0
-9 -80 0
10 -80 0
-15 -80 0
-16 -80 0
17 -80 0
33 -80 0
-34 -80 0
-35 -80 0
38 -80 0
-39 -80 0
-40 -80 0
42 -80 0
-43 -80 0
-44 -80 0
-45 -80 0
-49 -80 0
50 -80 0
-57 -80 0
-58 -80 0
59 -80 0
-60 -80 0
80 -81 0
-37 -81 0
-7 -82 0
-23 -82 0
-41 -82 0
-46 -82 0
-51 -82 0
-52 -82 0
-53 -82 0
-54 -82 0
-55 -82 0
56 -82 0
-61 -82 0
81 -83 0
82 -83 0
83 -84 0
19 -84 0
-3 -85 0
-4 -85 0
-5 -85 0
-8 -85 0
-20 -85 0
-32 -85 0
84 -86 0
85 -86 0
86 -87 0
2 -87 0
9 -88 0
-15 -88 0
16 -88 0
32 -88 0
-34 -88 0
38 -88 0
-39 -88 0
-40 -88 0
42 -88 0
-43 -88 0
-44 -88 0
-45 -88 0
49 -88 0
-50 -88 0
-57 -88 0
-58 -88 0
-59 -88 0
60 -88 0
88 -89 0
-8 -89 0
89 -90 0
-33 -90 0
90 -91 0
-37 -91 0
-3 -92 0
-4 -92 0
-17 -92 0
-35 -92 0
91 -93 0
92 -93 0
93 -94 0
5 -94 0
3 -95 0
-4 -95 0
8 -95 0
-9 -95 0
-15 -95 0
-16 -95 0
-32 -95 0
34 -95 0
-43 -95 0
44 -95 0
-45 -95 0
-49 -95 0
50 -95 0
58 -95 0
-59 -95 0
-60 -95 0
95 -96 0
17 -96 0
-35 -97 0
-38 -97 0
-39 -97 0
-40 -97 0
-42 -97 0
-57 -97 0
96 -98 0
97 -98 0
98 -99 0
37 -99 0
99 -100 0
-33 -100 0
100 -101 0
-5 -101 0
94 101 -102 0
-7 -103 0
-20 -103 0
-23 -103 0
-41 -103 0
-46 -103 0
-51 -103 0
-52 -103 0
-53 -103 0
-54 -103 0
-55 -103 0
56 -103 0
-61 -103 0
102 -104 0
103 -104 0
104 -105 0
19 -105 0
-3 -106 0
4 -106 0
-5 -106 0
-7 -106 0
-8 -106 0
9 -106 0
-16 -106 0
17 -106 0
20 -106 0
-23 -106 0
31 -106 0
-32 -106 0
-33 -106 0
-34 -106 0
-35 -106 0
37 -106 0
-38 -106 0
-39 -106 0
-40 -106 0
-41 -106 0
-42 -106 0
43 -106 0
-44 -106 0
-45 -106 0
-46 -106 0
49 -106 0
-50 -106 0
-51 -106 0
-52 -106 0
-53 -106 0
-54 -106 0
55 -106 0
-56 -106 0
-57 -106 0
-58 -106 0
-59 -106 0
-60 -106 0
61 -106 0
106 -107 0
-15 -107 0
107 -108 0
-19 -108 0
105 108 -109 0
109 -110 0
-10 -110 0
110 -111 0
-2 -111 0
87 111 -112 0
112 -113 0
-13 -113 0
113 -114 0
114 -115 0
115 -116 0
-14 -116 0
-12 -117 0
-18 -117 0
-24 -117 0
-25 -117 0
-26 -117 0
-27 -117 0
-28 -117 0
-29 -117 0
116 -118 0
117 -118 0
118 -119 0
30 -119 0
-3 -120 0
-4 -120 0
5 -120 0
-7 -120 0
9 -120 0
-10 -120 0
-12 -120 0
-23 -120 0
25 -120 0
-27 -120 0
34 -120 0
-35 -120 0
-37 -120 0
38 -120 0
-39 -120 0
-40 -120 0
-41 -120 0
42 -120 0
-43 -120 0
-44 -120 0
-45 -120 0
-46 -120 0
-49 -120 0
50 -120 0
-51 -120 0
-52 -120 0
-53 -120 0
-54 -120 0
-55 -120 0
56 -120 0
-57 -120 0
-58 -120 0
59 -120 0
-60 -120 0
-61 -120 0
120 -121 0
24 -121 0
1 -122 0
-3 -122 0
-4 -122 0
-7 -122 0
-9 -122 0
-10 -122 0
12 -122 0
-25 -122 0
34 -122 0
-37 -122 0
-38 -122 0
-40 -122 0
41 -122 0
-42 -122 0
-43 -122 0
45 -122 0
-46 -122 0
-52 -122 0
53 -122 0
-55 -122 0
-56 -122 0
57 -122 0
-58 -122 0
-60 -122 0
-61 -122 0
122 -123 0
27 -123 0
3 -124 0
-4 -124 0
-7 -124 0
-9 -124 0
10 -124 0
-12 -124 0
25 -124 0
-34 -124 0
36 -124 0
37 -124 0
-38 -124 0
-40 -124 0
-41 -124 0
-42 -124 0
43 -124 0
-45 -124 0
-46 -124 0
-52 -124 0
-53 -124 0
55 -124 0
-56 -124 0
-57 -124 0
-58 -124 0
-60 -124 0
61 -124 0
124 -125 0
-27 -125 0
123 125 -126 0
-5 -127 0
23 -127 0
-35 -127 0
-39 -127 0
-44 -127 0
49 -127 0
-50 -127 0
-51 -127 0
-54 -127 0
-59 -127 0
126 -128 0
127 -128 0
128 -129 0
-24 -129 0
121 129 -130 0
130 -131 0
-33 -131 0
131 -132 0
-28 -132 0
132 -133 0
133 -134 0
-19 -134 0
134 -135 0
-29 -135 0
135 -136 0
-2 -137 0
-8 -137 0
-13 -137 0
-15 -137 0
-16 -137 0
-17 -137 0
-18 -137 0
-20 -137 0
-26 -137 0
-32 -137 0
136 -138 0
137 -138 0
138 -139 0
14 -139 0
-7 -140 0
12 -140 0
13 -140 0
-18 -140 0
29 -140 0
-37 -140 0
-38 -140 0
-39 -140 0
40 -140 0
-41 -140 0
-42 -140 0
-43 -140 0
-44 -140 0
-45 -140 0
46 -140 0
49 -140 0
-50 -140 0
-51 -140 0
52 -140 0
-53 -140 0
-54 -140 0
-55 -140 0
-56 -140 0
-57 -140 0
58 -140 0
-59 -140 0
-60 -140 0
-61 -140 0
140 -141 0
-25 -141 0
141 -142 0
-17 -142 0
-9 -143 0
-15 -143 0
-27 -143 0
-35 -143 0
142 -144 0
143 -144 0
144 -145 0
33 -145 0
-7 -146 0
12 -146 0
13 -146 0
-17 -146 0
-18 -146 0
-29 -146 0
35 -146 0
-37 -146 0
-38 -146 0
-39 -146 0
40 -146 0
-41 -146 0
-42 -146 0
-43 -146 0
-44 -146 0
-45 -146 0
46 -146 0
49 -146 0
-50 -146 0
-51 -146 0
52 -146 0
-53 -146 0
-54 -146 0
-55 -146 0
-56 -146 0
-57 -146 0
58 -146 0
-59 -146 0
-60 -146 0
-61 -146 0
146 -147 0
27 -147 0
147 -148 0
-15 -148 0
-9 -149 0
-25 -149 0
148 -150 0
149 -150 0
150 -151 0
-33 -151 0
145 151 -152 0
-3 -153 0
-5 -153 0
-8 -153 0
-26 -153 0
-32 -153 0
152 -154 0
153 -154 0
154 -155 0
2 -155 0
-4 -156 0
-10 -156 0
-16 -156 0
-19 -156 0
-20 -156 0
-23 -156 0
-24 -156 0
-28 -156 0
-34 -156 0
155 -157 0
156 -157 0
157 -158 0
22 -158 0
-3 -159 0
-4 -159 0
5 -159 0
-10 -159 0
-12 -159 0
-16 -159 0
-17 -159 0
18 -159 0
27 -159 0
-29 -159 0
-32 -159 0
34 -159 0
-35 -159 0
-37 -159 0
-38 -159 0
39 -159 0
-40 -159 0
-41 -159 0
-42 -159 0
-43 -159 0
-44 -159 0
45 -159 0
-46 -159 0
-49 -159 0
-50 -159 0
51 -159 0
-52 -159 0
53 -159 0
-54 -159 0
-55 -159 0
-56 -159 0
57 -159 0
-58 -159 0
-59 -159 0
-60 -159 0
-61 -159 0
159 -160 0
8 -160 0
3 -161 0
-4 -161 0
-5 -161 0
10 -161 0
-12 -161 0
-16 -161 0
-17 -161 0
18 -161 0
-27 -161 0
29 -161 0
32 -161 0
-34 -161 0
-35 -161 0
37 -161 0
-38 -161 0
-39 -161 0
-40 -161 0
-41 -161 0
-42 -161 0
43 -161 0
-44 -161 0
-45 -161 0
-46 -161 0
-49 -161 0
-50 -161 0
51 -161 0
-52 -161 0
-53 -161 0
-54 -161 0
55 -161 0
-56 -161 0
-57 -161 0
-58 -161 0
59 -161 0
-60 -161 0
-61 -161 0
161 -162 0
-8 -162 0
160 162 -163 0
163 -164 0
-33 -164 0
164 -165 0
-28 -165 0
-15 -166 0
-26 -166 0
165 -167 0
166 -167 0
167 -168 0
-2 -168 0
-7 -169 0
-9 -169 0
-13 -169 0
-20 -169 0
-23 -169 0
-24 -169 0
-25 -169 0
168 -170 0
169 -170 0
170 -171 0
19 -171 0
15 -172 0
-17 -172 0
-23 -172 0
24 -172 0
25 -172 0
-27 -172 0
-29 -172 0
-33 -172 0
35 -172 0
42 -172 0
-44 -172 0
-45 -172 0
-46 -172 0
49 -172 0
-50 -172 0
-51 -172 0
-52 -172 0
-54 -172 0
-55 -172 0
56 -172 0
-57 -172 0
-59 -172 0
60 -172 0
-61 -172 0
172 -173 0
-13 -173 0
-3 -174 0
-4 -174 0
-5 -174 0
-7 -174 0
-8 -174 0
-9 -174 0
10 -174 0
-12 -174 0
-16 -174 0
-18 -174 0
-20 -174 0
-26 -174 0
-28 -174 0
-32 -174 0
-34 -174 0
-37 -174 0
38 -174 0
-39 -174 0
-40 -174 0
-41 -174 0
-43 -174 0
-53 -174 0
-58 -174 0
173 -175 0
174 -175 0
175 -176 0
2 -176 0
5 -177 0
7 -177 0
-8 -177 0
-12 -177 0
-13 -177 0
-17 -177 0
32 -177 0
-38 -177 0
-39 -177 0
40 -177 0
-41 -177 0
-43 -177 0
-44 -177 0
-45 -177 0
46 -177 0
49 -177 0
-50 -177 0
-51 -177 0
58 -177 0
-59 -177 0
-60 -177 0
-61 -177 0
177 -178 0
18 -178 0
-4 -179 0
-10 -179 0
-16 -179 0
-25 -179 0
-26 -179 0
-29 -179 0
-34 -179 0
-35 -179 0
-37 -179 0
-42 -179 0
52 -179 0
-53 -179 0
-54 -179 0
-55 -179 0
-56 -179 0
-57 -179 0
178 -180 0
179 -180 0
180 -181 0
28 -181 0
-4 -182 0
5 -182 0
7 -182 0
-8 -182 0
26 -182 0
-32 -182 0
34 -182 0
-35 -182 0
-37 -182 0
-38 -182 0
40 -182 0
-41 -182 0
-42 -182 0
-43 -182 0
-45 -182 0
46 -182 0
52 -182 0
-53 -182 0
-55 -182 0
-56 -182 0
-57 -182 0
58 -182 0
-60 -182 0
-61 -182 0
182 -183 0
-25 -183 0
-10 -184 0
-12 -184 0
-13 -184 0
-16 -184 0
-17 -184 0
-29 -184 0
-39 -184 0
-44 -184 0
49 -184 0
-50 -184 0
-51 -184 0
-54 -184 0
-59 -184 0
183 -185 0
184 -185 0
185 -186 0
18 -186 0
186 -187 0
-28 -187 0
181 187 -188 0
-3 -189 0
-9 -189 0
-15 -189 0
-20 -189 0
-23 -189 0
-24 -189 0
-27 -189 0
-33 -189 0
188 -190 0
189 -190 0
190 -191 0
21 -191 0
-5 -192 0
-23 -192 0
24 -192 0
25 -192 0
-29 -192 0
-34 -192 0
35 -192 0
38 -192 0
-39 -192 0
-40 -192 0
-41 -192 0
49 -192 0
-50 -192 0
-51 -192 0
-53 -192 0
-54 -192 0
-55 -192 0
56 -192 0
-58 -192 0
-59 -192 0
60 -192 0
-61 -192 0
192 -193 0
4 -193 0
-7 -194 0
-12 -194 0
-26 -194 0
-32 -194 0
-37 -194 0
42 -194 0
-43 -194 0
-44 -194 0
-45 -194 0
-46 -194 0
-52 -194 0
-57 -194 0
193 -195 0
194 -195 0
195 -196 0
8 -196 0
196 -197 0
-20 -197 0
197 -198 0
-28 -198 0
-3 -199 0
-9 -199 0
-13 -199 0
-16 -199 0
-17 -199 0
-18 -199 0
-27 -199 0
-33 -199 0
198 -200 0
199 -200 0
200 -201 0
15 -201 0
-3 -202 0
-5 -202 0
6 -202 0
7 -202 0
-8 -202 0
-9 -202 0
-12 -202 0
-13 -202 0
17 -202 0
-18 -202 0
20 -202 0
-23 -202 0
-24 -202 0
-32 -202 0
-35 -202 0
-37 -202 0
-38 -202 0
-39 -202 0
-40 -202 0
41 -202 0
-42 -202 0
-43 -202 0
-44 -202 0
45 -202 0
-46 -202 0
49 -202 0
-50 -202 0
-51 -202 0
-52 -202 0
53 -202 0
-54 -202 0
-55 -202 0
-56 -202 0
57 -202 0
-58 -202 0
-59 -202 0
-60 -202 0
-61 -202 0
202 -203 0
33 -203 0
3 -204 0
-9 -204 0
12 -204 0
32 -204 0
-38 -204 0
39 -204 0
-41 -204 0
-43 -204 0
-44 -204 0
46 -204 0
-59 -204 0
-61 -204 0
204 -205 0
58 -205 0
-5 -206 0
-8 -206 0
23 -206 0
-35 -206 0
-37 -206 0
-40 -206 0
-42 -206 0
-45 -206 0
-49 -206 0
50 -206 0
-51 -206 0
52 -206 0
-53 -206 0
-54 -206 0
-55 -206 0
-56 -206 0
-57 -206 0
-60 -206 0
205 -207 0
206 -207 0
207 -208 0
-20 -208 0
-7 -209 0
13 -209 0
-17 -209 0
-18 -209 0
-24 -209 0
208 -210 0
209 -210 0
210 -211 0
-33 -211 0
203 211 -212 0
-4 -213 0
-16 -213 0
-25 -213 0
-26 -213 0
-27 -213 0
-29 -213 0
-34 -213 0
212 -214 0
213 -214 0
214 -215 0
28 -215 0
4 -216 0
-5 -216 0
12 -216 0
23 -216 0
-24 -216 0
26 -216 0
-29 -216 0
-37 -216 0
38 -216 0
-39 -216 0
-40 -216 0
-41 -216 0
-42 -216 0
-43 -216 0
-44 -216 0
-45 -216 0
46 -216 0
-49 -216 0
50 -216 0
-51 -216 0
-52 -216 0
-53 -216 0
54 -216 0
-55 -216 0
-56 -216 0
57 -216 0
-58 -216 0
-59 -216 0
-60 -216 0
-61 -216 0
216 -217 0
-8 -217 0
-7 -218 0
13 -218 0
-16 -218 0
-17 -218 0
-18 -218 0
-25 -218 0
217 -219 0
218 -219 0
219 -220 0
-20 -220 0
-3 -221 0
-9 -221 0
-27 -221 0
-32 -221 0
-34 -221 0
-35 -221 0
220 -222 0
221 -222 0
222 -223 0
33 -223 0
-3 -224 0
4 -224 0
-29 -224 0
-34 -224 0
35 -224 0
-37 -224 0
-38 -224 0
39 -224 0
52 -224 0
-53 -224 0
-54 -224 0
-57 -224 0
58 -224 0
-59 -224 0
224 -225 0
27 -225 0
3 -226 0
-4 -226 0
29 -226 0
34 -226 0
-35 -226 0
-37 -226 0
38 -226 0
-39 -226 0
-52 -226 0
-53 -226 0
54 -226 0
57 -226 0
-58 -226 0
-59 -226 0
226 -227 0
-27 -227 0
225 227 -228 0
-5 -229 0
-16 -229 0
-17 -229 0
-40 -229 0
-41 -229 0
-42 -229 0
-43 -229 0
-44 -229 0
-45 -229 0
46 -229 0
-49 -229 0
50 -229 0
-51 -229 0
-55 -229 0
-56 -229 0
-60 -229 0
-61 -229 0
228 -230 0
229 -230 0
230 -231 0
18 -231 0
7 -232 0
-8 -232 0
-9 -232 0
-12 -232 0
-13 -232 0
-23 -232 0
-24 -232 0
-25 -232 0
-26 -232 0
-32 -232 0
231 -233 0
232 -233 0
233 -234 0
20 -234 0
-3 -235 0
4 -235 0
-5 -235 0
-8 -235 0
9 -235 0
26 -235 0
-27 -235 0
-32 -235 0
-34 -235 0
35 -235 0
37 -235 0
-38 -235 0
-39 -235 0
-40 -235 0
-42 -235 0
43 -235 0
-44 -235 0
-45 -235 0
-52 -235 0
-53 -235 0
-54 -235 0
55 -235 0
-57 -235 0
-58 -235 0
59 -235 0
-60 -235 0
235 -236 0
-29 -236 0
-7 -237 0
-12 -237 0
13 -237 0
-16 -237 0
-17 -237 0
-18 -237 0
-23 -237 0
24 -237 0
-25 -237 0
-41 -237 0
-46 -237 0
-49 -237 0
-50 -237 0
51 -237 0
-56 -237 0
-61 -237 0
236 -238 0
237 -238 0
238 -239 0
-20 -239 0
234 239 -240 0
240 -241 0
-33 -241 0
223 241 -242 0
242 -243 0
-28 -243 0
215 243 -244 0
244 -245 0
-15 -245 0
201 245 -246 0
246 -247 0
-10 -247 0
247 -248 0
-21 -248 0
191 248 -249 0
249 -250 0
-2 -250 0
176 250 -251 0
251 -252 0
-19 -252 0
171 252 -253 0
253 -254 0
-22 -254 0
158 254 -255 0
255 -256 0
-14 -256 0
139 256 -257 0
257 -258 0
-30 -258 0
259 -260 0
-11 -260 0
261 0
-47 0
-48 0
11 260 0
-259 260 0
-258 259 0
-257 258 0
-256 257 0
-255 256 0
-254 255 0
-250 251 0
-248 249 0
-247 248 0
-246 247 0
-245 246 0
-244 245 0
-243 244 0
-235 236 0
-232 233 0
-230 231 0
-229 230 0
-228 230 0
-227 228 0
-226 227 0
-225 228 0
-224 225 0
-222 223 0
-241 242 0
-221 222 0
-220 222 0
-219 220 0
-218 219 0
-217 219 0
-216 217 0
-54 216 226 0
-215 244 0
-223 242 0
-214 215 0
-213 214 0
-240 241 0
-212 214 0
-238 239 0
-210 211 0
-209 210 0
-207 208 0
-204 205 0
-234 240 0
-203 212 0
-92 93 0
-74 75 0
-185 186 0
-89 90 0
46 62 68 70 82 103 106 120 122 124 159 161 172 194 202 237 0
-85 86 0
-1 122 0
-80 81 0
-59 80 120 161 235 0
-91 93 0
9 77 80 95 122 124 143 149 169 174 189 199 202 204 221 232 0
-10 80 124 161 174 0
-114 115 0
-45 68 122 159 202 0
-108 109 0
-78 79 0
-77 78 0
-117 118 0
-90 91 0
29 77 117 135 146 159 172 179 184 192 213 216 224 236 0
-252 253 0
-144 145 0
23 77 82 103 106 120 156 169 172 189 192 202 232 237 0
-128 129 0
17 77 92 137 142 146 159 161 172 177 184 199 209 218 229 237 0
-170 171 0
-81 83 0
10 77 110 120 122 156 159 179 184 247 0
-38 62 80 88 120 174 192 216 226 0
-87 112 0
32 68 70 85 95 106 137 153 159 174 182 194 202 221 232 235 0
-76 78 0
-75 76 0
-93 94 0
-51 68 159 161 237 0
-71 72 0
-187 188 0
-73 74 0
-72 73 0
-58 70 95 140 146 177 182 205 224 0
35 77 80 92 97 106 120 127 143 159 161 179 182 202 206 221 226 0
-44 70 95 0
-8 95 160 196 0
-111 112 0
-4 70 106 193 216 224 235 0
-199 200 0
-68 69 0
-86 87 0
54 62 68 70 82 103 106 120 127 140 146 159 161 172 179 184 192 202 206 224 235 0
-57 68 122 159 202 216 226 0
-103 104 0
49 68 70 80 95 120 159 161 206 216 229 237 0
-150 151 0
-9 88 106 120 235 0
-155 157 0
-131 132 0
-24 68 70 121 172 192 237 0
-138 139 0
51 62 70 82 103 106 120 127 140 146 172 177 184 192 202 206 216 229 0
-132 133 0
-178 180 0
-16 62 88 0
-39 68 159 204 224 0
43 62 68 70 80 88 95 120 122 140 146 159 174 177 182 194 202 204 216 229 0
-236 238 0
-208 210 0
50 62 68 88 106 127 140 146 159 161 172 177 184 192 202 237 0
-106 107 0
-42 62 80 88 120 172 194 0
14 64 68 116 256 0
-50 70 80 95 120 206 216 229 0
41 62 68 70 82 103 106 120 124 140 146 159 161 174 177 182 192 204 216 229 237 0
12 77 117 120 124 159 161 174 177 184 194 202 232 237 0
-105 109 0
39 62 70 80 88 97 106 120 127 140 146 161 174 177 184 192 202 216 226 235 0
-88 89 0
-110 111 0
52 62 68 70 82 103 106 120 122 124 159 161 172 194 202 216 226 235 0
-11 79 0
-134 135 0
-165 167 0
-148 150 0
-172 173 0
-37 70 99 106 124 161 235 0
-67 75 0
45 62 70 80 88 95 106 120 124 140 146 161 172 177 182 194 206 216 229 235 0
-3 62 95 124 161 204 226 0
-70 71 0
-239 240 0
-211 212 0
2 62 70 111 137 168 250 0
4 62 68 85 92 95 120 122 124 156 159 161 174 179 182 213 226 0
-231 233 0
8 77 85 89 106 137 153 162 174 177 182 202 206 217 232 235 0
-173 175 0
-135 136 0
-167 168 0
-17 80 96 106 202 0
40 62 68 70 80 88 97 106 120 122 124 159 161 174 192 202 206 216 229 235 0
3 68 70 85 92 106 120 122 153 159 174 189 199 202 221 224 235 0
34 62 68 70 80 88 106 124 156 161 174 179 192 213 221 224 235 0
30 74 258 0
-56 62 70 82 103 120 172 192 0
-28 69 181 215 0
-126 128 0
20 62 68 70 85 103 137 156 169 174 189 197 208 220 239 0
-205 207 0
-66 67 0
-237 238 0
-63 64 0
13 62 70 113 137 169 173 177 184 199 202 232 0
33 62 90 100 106 131 151 164 172 189 199 211 241 0
38 68 70 97 106 122 124 140 146 159 161 177 182 202 204 224 235 0
-14 71 139 0
-161 162 0
18 65 68 70 117 137 140 146 174 199 202 209 218 237 0
-13 68 140 146 209 218 237 0
-25 70 120 124 172 192 0
-19 62 84 105 171 0
58 62 68 80 88 106 120 122 124 159 161 174 192 202 216 226 235 0
-100 101 0
24 65 117 129 156 169 189 202 209 216 232 0
-122 123 0
-133 134 0
-164 165 0
-162 163 0
-193 195 0
19 68 70 108 134 156 252 0
-115 116 0
25 65 68 117 122 141 149 169 179 183 213 218 232 237 0
-94 102 0
-12 122 140 146 204 216 0
-60 62 88 172 192 0
-153 154 0
-84 86 0
61 62 68 70 82 103 120 122 140 146 159 161 172 177 182 192 202 204 216 229 237 0
-198 200 0
-127 128 0
-62 63 0
37 62 68 81 91 120 122 140 146 159 174 179 182 194 202 206 216 224 226 0
-151 152 0
15 63 68 70 80 88 95 107 137 143 148 166 189 245 0
-5 94 120 159 177 182 0
-113 114 0
56 68 106 122 124 140 146 159 161 179 182 202 206 216 229 237 0
28 65 72 117 132 156 165 174 187 198 243 0
-64 66 0
7 77 82 103 106 120 122 124 140 146 169 174 194 209 218 237 0
-65 66 0
-30 67 119 0
44 62 68 80 88 106 120 127 140 146 159 161 172 177 184 194 202 204 216 229 235 0
-177 178 0
55 62 68 70 82 103 120 122 140 146 159 172 179 182 192 202 206 216 229 0
27 65 68 70 117 120 125 143 161 172 189 199 213 221 227 235 0
-202 203 0
-32 62 88 161 177 204 0
26 65 68 70 117 137 153 166 174 179 194 213 232 0
-2 68 87 155 176 0
-184 185 0
-83 84 0
-183 185 0
-53 68 122 159 202 0
-251 252 0
-142 144 0
16 68 70 80 95 106 137 156 159 161 174 179 184 199 213 218 229 237 0
-34 95 120 122 159 182 226 0
-95 96 0
-96 98 0
-169 170 0
-97 98 0
57 62 70 80 88 97 106 120 124 140 146 161 172 179 182 194 206 224 235 0
-188 190 0
-99 100 0
-101 102 0
-98 99 0
-146 147 0
-102 104 0
5 77 85 101 106 127 153 161 174 192 202 206 216 229 235 0
-104 105 0
-20 106 202 234 0
-31 106 0
42 68 70 97 106 122 124 140 146 159 161 179 182 202 206 216 229 235 0
-159 160 0
-143 144 0
-197 198 0
-61 106 124 0
-49 62 88 106 127 140 146 172 177 184 192 202 0
-107 108 0
-109 110 0
53 62 70 82 103 106 120 124 140 146 161 174 179 182 192 206 216 224 226 235 0
-112 113 0
-163 164 0
-118 119 0
-121 130 0
-119 259 0
-120 121 0
-41 122 202 0
-242 243 0
-55 106 124 161 235 0
-27 123 147 159 225 0
-200 201 0
-36 124 0
-124 125 0
-125 126 0
-23 127 206 216 0
-139 257 0
-129 130 0
-137 138 0
-130 131 0
-182 183 0
-136 138 0
-168 170 0
60 68 70 80 95 106 120 122 124 140 146 159 161 177 182 202 206 216 229 235 0
-29 140 161 226 0
-206 207 0
-40 140 146 177 182 0
-46 140 146 177 182 204 216 229 0
-52 140 146 179 182 206 224 0
-140 141 0
-249 250 0
-141 142 0
-82 83 0
-145 152 0
-123 126 0
-35 146 172 192 224 235 0
-33 68 70 80 145 203 223 0
-147 148 0
-253 254 0
-149 150 0
-6 202 0
-26 182 216 235 0
-201 246 0
-152 154 0
-154 155 0
-156 157 0
-157 158 0
-22 158 0
-158 255 0
-18 159 161 178 186 231 0
-116 118 0
-160 163 0
-43 106 124 161 235 0
-166 167 0
-171 253 0
-69 73 0
-15 172 201 0
-176 251 0
-174 175 0
-175 176 0
-7 177 182 202 232 0
-179 180 0
-180 181 0
-181 188 0
-186 187 0
-233 234 0
-189 190 0
-190 191 0
-21 191 0
-192 193 0
59 62 68 70 88 95 106 127 140 146 159 172 177 184 192 202 204 216 224 226 0
-191 249 0
-194 195 0
-195 196 0
-196 197 0
